proyfinal/src/viki/013/andrea/andrea-localstore/experimentInOfficeAgust.take6/worker_8/3238bb10-a48c-413f-8f2a-a39d79ee0f0c.als.cnf.out
Reading from standard input... Use '--help' for help.
============================[ Problem Statistics ]=============================
|                                                                             |
|  Number of variables:         87638                                         |
|  Number of clauses:          161767                                         |
|  Parse time:                   0.04 s                                       |
|                                                                             |
============================[ Search Statistics ]==============================
| Conflicts |          ORIGINAL         |          LEARNT          | Progress |
|           |    Vars  Clauses Literals |    Limit  Clauses Lit/Cl |          |
===============================================================================
|       100 |   65053   115002   286733 |    42167      100     16 | 25.771 % |
|       250 |   60049    99007   247298 |    46384      245     38 | 31.481 % |
|       475 |   60049    99007   247298 |    51022      470     46 | 31.481 % |
|       812 |   60049    99007   247298 |    56124      807     58 | 31.481 % |
|      1318 |   60049    99007   247298 |    61737     1313     58 | 31.481 % |
|      2077 |   60049    99007   247298 |    67911     2072     65 | 31.481 % |
|      3216 |   59639    97425   243452 |    74702     3100     76 | 31.948 % |
|      4924 |   59588    97309   243181 |    82172     4806     82 | 32.007 % |
|      7486 |   59514    96932   242314 |    90389     7354     82 | 32.091 % |
|     11330 |   59073    95433   238800 |    99428    11156     92 | 32.594 % |
|     17096 |   58971    94796   237276 |   109371    16769     90 | 32.711 % |
===============================================================================
restarts              : 78
conflicts             : 21708          (7551 /sec)
decisions             : 106065         (0.00 % random) (36895 /sec)
propagations          : 31396782       (10921387 /sec)
conflict literals     : 2132976        (33.82 % deleted)
Memory used           : 42.75 MB
CPU time              : 2.8748 s

INDETERMINATE
